p cnf 109 341
c t mc
-3 -1 0
-3 2 0
1 -2 3 0
-6 -1 0
-6 -5 0
1 5 6 0
6 7 -8 0
-6 -7 -8 0
6 -7 8 0
-6 7 8 0
-11 -9 0
-11 10 0
9 -10 11 0
-12 -8 0
-12 -11 0
8 11 12 0
13 -4 0
13 12 0
4 -12 -13 0
-3 13 -14 0
3 -13 -14 0
-3 -13 14 0
3 13 14 0
16 15 0
16 1 0
-15 -1 -16 0
-19 -17 0
-19 -18 0
17 18 19 0
-21 -19 0
-21 20 0
19 -20 21 0
-23 22 0
-23 1 0
-22 -1 23 0
-24 21 0
-24 23 0
-21 -23 24 0
25 16 0
25 24 0
-16 -24 -25 0
27 22 0
27 26 0
-22 -26 -27 0
-28 -19 0
-28 -27 0
19 27 28 0
29 25 0
29 28 0
-25 -28 -29 0
30 -14 0
30 29 0
14 -29 -30 0
9 18 -31 0
-9 -18 -31 0
9 -18 31 0
-9 18 31 0
21 32 -33 0
-21 -32 -33 0
21 -32 33 0
-21 32 33 0
35 -33 0
35 34 0
33 -34 -35 0
36 -21 0
36 35 0
21 -35 -36 0
31 36 -37 0
-31 -36 -37 0
31 -36 37 0
-31 36 37 0
-39 -18 0
-39 38 0
18 -38 39 0
40 39 0
40 -9 0
-39 9 -40 0
41 -19 0
41 10 0
19 -10 -41 0
42 41 0
42 11 0
-41 -11 -42 0
-42 -17 -43 0
42 17 -43 0
-42 17 43 0
42 -17 43 0
44 40 0
44 43 0
-40 -43 -44 0
-45 -37 0
-45 -44 0
37 44 45 0
-30 45 -46 0
30 -45 -46 0
-30 -45 46 0
30 45 46 0
-47 5 0
-47 26 0
-5 -26 47 0
-48 22 0
-48 41 0
-22 -41 48 0
-49 -47 0
-49 48 0
47 -48 49 0
-50 19 -51 0
50 -19 -51 0
-50 -19 51 0
50 19 51 0
52 49 0
52 -51 0
-49 51 -52 0
53 -50 -54 0
-53 50 -54 0
53 50 54 0
-53 -50 54 0
55 39 0
55 26 0
-39 -26 -55 0
-19 11 -56 0
19 -11 -56 0
-19 -11 56 0
19 11 56 0
57 -22 0
57 4 0
22 -4 -57 0
-58 56 0
-58 57 0
-56 -57 58 0
59 55 0
59 58 0
-55 -58 -59 0
-62 60 0
-62 -61 0
-60 61 62 0
63 -20 0
63 -62 0
20 62 -63 0
64 -15 0
64 25 0
15 -25 -64 0
65 -17 0
65 -12 0
17 12 -65 0
66 64 0
66 -65 0
-64 65 -66 0
63 -66 -67 0
-63 66 -67 0
63 66 67 0
-63 -66 67 0
-1 -2 -68 0
1 2 -68 0
-1 2 68 0
1 -2 68 0
68 -26 -69 0
-68 26 -69 0
68 26 69 0
-68 -26 69 0
32 -69 -70 0
-32 69 -70 0
32 69 70 0
-32 -69 70 0
67 70 -71 0
-67 -70 -71 0
67 -70 71 0
-67 70 71 0
-72 59 0
-72 -71 0
-59 71 72 0
-73 -54 0
-73 -72 0
54 72 73 0
-74 12 0
-74 -34 0
-12 34 74 0
75 73 0
75 -74 0
-73 74 -75 0
-76 20 0
-76 6 0
-20 -6 76 0
-77 38 0
-77 4 0
-38 -4 77 0
78 -76 0
78 -77 0
76 77 -78 0
-34 -61 -79 0
34 61 -79 0
-34 61 79 0
34 -61 79 0
80 78 0
80 -79 0
-78 79 -80 0
81 -8 0
81 -24 0
8 24 -81 0
82 81 0
82 12 0
-81 -12 -82 0
22 10 -83 0
-22 -10 -83 0
22 -10 83 0
-22 10 83 0
-84 82 0
-84 -83 0
-82 83 84 0
85 -80 0
85 84 0
80 -84 -85 0
87 -10 0
87 86 0
10 -86 -87 0
88 -50 0
88 -87 0
50 87 -88 0
89 9 0
89 -1 0
-9 1 -89 0
90 -89 0
90 9 0
89 -9 -90 0
88 90 -91 0
-88 -90 -91 0
88 -90 91 0
-88 90 91 0
-92 85 0
-92 -91 0
-85 91 92 0
-93 75 0
-93 -92 0
-75 92 93 0
-52 93 -94 0
52 -93 -94 0
-52 -93 94 0
52 93 94 0
95 41 0
95 15 0
-41 -15 -95 0
96 95 0
96 -16 0
-95 16 -96 0
-97 96 0
-97 25 0
-96 -25 97 0
98 -97 0
98 -33 0
97 33 -98 0
-99 -23 0
-99 -1 0
23 1 99 0
99 6 -100 0
-99 -6 -100 0
99 -6 100 0
-99 6 100 0
-101 7 0
-101 100 0
-7 -100 101 0
-98 101 -102 0
98 -101 -102 0
-98 -101 102 0
98 101 102 0
-103 -94 0
-103 102 0
94 -102 103 0
104 46 0
104 103 0
-46 -103 -104 0
105 -23 0
105 -32 0
23 32 -105 0
87 -105 -106 0
-87 105 -106 0
87 105 106 0
-87 -105 106 0
-107 22 0
-107 -17 0
-22 17 107 0
-108 -106 0
-108 107 0
106 -107 108 0
-109 104 0
-109 -108 0
-104 108 109 0
-101 49 -96 0
-105 -93 -103 0
105 -60 -5 58 -102 0
2 -34 25 16 96 68 -91 99 -109 0
23 86 91 -33 -75 -97 0
-70 54 -30 20 -96 28 0
83 32 52 30 0
2 -40 85 0
107 -12 109 -53 0
-95 88 -71 -60 -64 35 0
-52 9 -39 0
18 -14 44 15 -28 -95 -65 -5 -8 68 0
-88 -61 84 3 -27 0
7 -41 -96 58 105 1 -61 -94 0
-37 94 -86 88 -102 -105 -108 -96 13 0
-43 -78 -16 66 0
-28 74 -97 -5 -101 86 -41 -52 -91 -4 0
95 -84 -39 38 -17 0
-61 -18 30 -33 -50 -82 0
-100 70 0
-48 66 58 -61 83 -67 -54 52 -34 73 0
-43 14 25 7 0
-88 -94 -52 11 -84 -103 -1 90 0
-1 -64 85 8 -69 103 0
-10 -77 82 11 -41 72 -32 0
-40 87 99 69 -23 -11 -77 85 -49 0
80 -101 -86 0
-51 -66 -23 67 4 0
-97 10 19 -107 -55 -42 38 23 0
78 101 -108 7 4 0
45 -109 41 -97 50 0
89 -65 -103 12 26 92 -87 -68 64 0
-60 -90 -36 0
-83 50 34 0
48 97 0
42 105 -46 -22 65 -47 -26 -10 -5 0
-27 -82 20 -87 65 -73 0
-42 -30 -81 -104 0
66 82 88 0
95 67 -28 -81 -55 73 94 -72 0
-91 16 -62 59 -99 4 -40 -100 8 0
-41 63 -45 77 0
71 -78 77 -83 97 36 101 -63 0
72 22 -57 -9 45 -35 0
41 63 31 76 103 -92 -61 0
-12 4 78 -25 69 38 -11 -73 0
25 63 0
-18 101 -13 -97 31 93 0
-40 66 0
98 -56 -75 0
-76 -43 15 6 17 104 0
68 -42 39 -48 0
-33 -13 -35 98 75 66 59 -65 0
1 76 29 0
109 0
